c description: Subset cardinality formula for fast_gnp_random_graph(6,8,0.7)
c generator: CNFgen (0.9.0)
c copyright: (C) 2012-2020 Massimo Lauria <massimo.lauria@uniroma1.it>
c url: https://massimolauria.net/cnfgen
c
p cnf 36 184
1 2 3 4 0
1 2 3 5 0
1 2 3 6 0
1 2 3 7 0
1 2 4 5 0
1 2 4 6 0
1 2 4 7 0
1 2 5 6 0
1 2 5 7 0
1 2 6 7 0
1 3 4 5 0
1 3 4 6 0
1 3 4 7 0
1 3 5 6 0
1 3 5 7 0
1 3 6 7 0
1 4 5 6 0
1 4 5 7 0
1 4 6 7 0
1 5 6 7 0
2 3 4 5 0
2 3 4 6 0
2 3 4 7 0
2 3 5 6 0
2 3 5 7 0
2 3 6 7 0
2 4 5 6 0
2 4 5 7 0
2 4 6 7 0
2 5 6 7 0
3 4 5 6 0
3 4 5 7 0
3 4 6 7 0
3 5 6 7 0
4 5 6 7 0
8 9 10 11 0
8 9 10 12 0
8 9 10 13 0
8 9 11 12 0
8 9 11 13 0
8 9 12 13 0
8 10 11 12 0
8 10 11 13 0
8 10 12 13 0
8 11 12 13 0
9 10 11 12 0
9 10 11 13 0
9 10 12 13 0
9 11 12 13 0
10 11 12 13 0
14 15 16 17 0
14 15 16 18 0
14 15 16 19 0
14 15 16 20 0
14 15 17 18 0
14 15 17 19 0
14 15 17 20 0
14 15 18 19 0
14 15 18 20 0
14 15 19 20 0
14 16 17 18 0
14 16 17 19 0
14 16 17 20 0
14 16 18 19 0
14 16 18 20 0
14 16 19 20 0
14 17 18 19 0
14 17 18 20 0
14 17 19 20 0
14 18 19 20 0
15 16 17 18 0
15 16 17 19 0
15 16 17 20 0
15 16 18 19 0
15 16 18 20 0
15 16 19 20 0
15 17 18 19 0
15 17 18 20 0
15 17 19 20 0
15 18 19 20 0
16 17 18 19 0
16 17 18 20 0
16 17 19 20 0
16 18 19 20 0
17 18 19 20 0
21 22 23 0
21 22 24 0
21 22 25 0
21 23 24 0
21 23 25 0
21 24 25 0
22 23 24 0
22 23 25 0
22 24 25 0
23 24 25 0
26 27 28 29 0
26 27 28 30 0
26 27 28 31 0
26 27 29 30 0
26 27 29 31 0
26 27 30 31 0
26 28 29 30 0
26 28 29 31 0
26 28 30 31 0
26 29 30 31 0
27 28 29 30 0
27 28 29 31 0
27 28 30 31 0
27 29 30 31 0
28 29 30 31 0
32 33 34 0
32 33 35 0
32 33 36 0
32 34 35 0
32 34 36 0
32 35 36 0
33 34 35 0
33 34 36 0
33 35 36 0
34 35 36 0
-1 -8 -14 -21 0
-1 -8 -14 -26 0
-1 -8 -14 -32 0
-1 -8 -21 -26 0
-1 -8 -21 -32 0
-1 -8 -26 -32 0
-1 -14 -21 -26 0
-1 -14 -21 -32 0
-1 -14 -26 -32 0
-1 -21 -26 -32 0
-8 -14 -21 -26 0
-8 -14 -21 -32 0
-8 -14 -26 -32 0
-8 -21 -26 -32 0
-14 -21 -26 -32 0
-2 -9 -15 -22 0
-2 -9 -15 -27 0
-2 -9 -15 -33 0
-2 -9 -22 -27 0
-2 -9 -22 -33 0
-2 -9 -27 -33 0
-2 -15 -22 -27 0
-2 -15 -22 -33 0
-2 -15 -27 -33 0
-2 -22 -27 -33 0
-9 -15 -22 -27 0
-9 -15 -22 -33 0
-9 -15 -27 -33 0
-9 -22 -27 -33 0
-15 -22 -27 -33 0
-3 -16 0
-3 -34 0
-16 -34 0
-10 -17 -23 0
-10 -17 -28 0
-10 -23 -28 0
-17 -23 -28 0
-4 -11 0
-4 -35 0
-11 -35 0
-5 -12 -18 0
-5 -12 -29 0
-5 -12 -36 0
-5 -18 -29 0
-5 -18 -36 0
-5 -29 -36 0
-12 -18 -29 0
-12 -18 -36 0
-12 -29 -36 0
-18 -29 -36 0
-6 -13 -19 0
-6 -13 -24 0
-6 -13 -30 0
-6 -19 -24 0
-6 -19 -30 0
-6 -24 -30 0
-13 -19 -24 0
-13 -19 -30 0
-13 -24 -30 0
-19 -24 -30 0
-7 -20 -25 0
-7 -20 -31 0
-7 -25 -31 0
-20 -25 -31 0